S = 5;
start = [|0,0,9,0,17,0,0,19,0,0,0,0,0,6,0,0,0,12,0,0,2,0,0,20,15|
8,10,4,16,0,0,0,0,0,0,0,0,0,0,7,24,22,0,0,18,0,0,0,0,0|
0,0,0,18,0,0,24,0,0,4,0,12,0,19,0,0,0,17,20,0,0,0,0,5,9|
0,0,0,5,0,0,0,17,22,0,13,0,0,25,0,0,0,0,0,0,0,0,0,0,1|
0,14,0,0,0,0,8,10,0,0,0,0,17,0,0,0,0,0,0,0,7,0,0,0,0|
13,17,0,0,0,0,0,12,3,0,0,18,15,0,0,0,0,10,0,0,0,0,25,0,16|
0,0,0,23,0,0,0,0,0,0,0,0,0,0,0,0,0,0,0,0,0,19,0,0,0|
0,0,0,0,9,0,0,0,19,0,0,0,0,0,0,0,12,16,0,23,0,0,0,0,0|
0,0,0,0,0,0,0,0,0,0,0,0,0,0,0,0,17,6,0,0,0,0,0,0,0|
0,0,0,0,0,16,21,7,0,0,0,25,0,0,14,2,20,0,0,0,1,0,0,0,10|
0,0,0,13,0,0,0,11,25,0,3,6,0,18,0,14,0,4,0,1,19,0,16,0,0|
0,0,0,0,0,19,0,0,0,0,22,0,0,0,2,0,0,7,0,0,10,0,0,25,0|
0,0,0,0,0,0,0,0,0,0,0,17,7,15,0,0,0,0,8,0,0,0,0,0,2|
5,12,0,0,2,0,0,0,17,0,0,19,0,0,13,21,0,11,0,6,0,18,0,8,3|
0,0,17,0,0,0,0,0,9,0,0,0,0,0,0,0,0,0,0,0,4,0,6,7,20|
0,0,0,0,16,0,18,2,0,0,0,3,0,0,8,0,0,0,0,0,0,1,0,0,0|
12,0,0,0,6,14,0,0,0,0,15,0,0,21,0,0,0,0,9,0,0,2,0,0,0|
0,18,19,0,25,21,0,0,0,11,0,0,6,0,17,0,0,22,0,13,0,16,5,0,0|
0,2,0,0,0,0,0,13,0,0,19,0,16,0,0,0,0,0,0,0,0,0,0,0,18|
0,0,0,0,5,0,25,6,0,0,2,0,0,1,0,12,3,0,16,19,24,0,0,0,0|
11,19,0,0,3,8,10,0,0,0,0,0,13,17,0,0,21,0,24,0,0,0,0,14,0|
0,1,0,2,0,0,0,0,0,13,0,0,0,0,3,19,0,0,0,25,0,8,0,0,0|
0,6,0,7,14,9,0,0,0,24,4,15,0,0,0,0,0,0,3,0,0,0,0,0,0|
0,0,24,0,0,0,0,25,6,0,0,0,0,0,0,0,4,14,0,0,23,20,0,0,0|
0,0,0,8,10,0,0,0,0,0,0,9,0,0,21,17,1,0,0,22,0,0,3,0,19|];